parameters: ex9_10_1_5_1.000000 

SCIP version 6.0.1 [precision: 8 byte] [memory: block] [mode: optimized] [LP solver: SoPlex 4.0.1] [GitHash: a27ecc0]
Copyright (C) 2002-2019 Konrad-Zuse-Zentrum fuer Informationstechnik Berlin (ZIB)

read problem <instances/ex9.mps> ...

original problem has 10404 variables (0 bin, 10404 int, 0 impl, 0 cont) and 40962 constraints
read solution <10solution/ex9_1.sol> ...

check the feasibility of <10solution/ex9_1.sol> for problem <instances/ex9.mps> ...

The solution <10solution/ex9_1.sol> is optimal to <instances/ex9.mps> 


real	0m0.396s
user	0m0.369s
sys	0m0.027s
